 C  O 
 1.0000000000000000
    20.0000000000000000    0.0000000000000000    0.0000000000000000
     0.0000000000000000   20.0000000000000000    0.0000000000000000
     0.0000000000000000    0.0000000000000000   22.3573160000000009
   1   2
Cartesian
 10.0000000000000000 10.0000000000000000 11.1786580000000004
 10.0000000000000000 10.0000000000000000 12.3573160000000009
 10.0000000000000000 10.0000000000000000 10.0000000000000000
